computational_data/lp/Q3.lp
Minimize
 obj: r_0 + r_1 + r_2 + r_3 + r_4 + r_5 + r_6 + r_7 + b_0 + b_1 + b_2 + b_3 + b_4 + b_5 + b_6 + b_7
Subject To
 red_nonempty: r_0 + r_1 + r_2 + r_3 + r_4 + r_5 + r_6 + r_7 >= 1
 blue_nonempty: b_0 + b_1 + b_2 + b_3 + b_4 + b_5 + b_6 + b_7 >= 1
 disjoint_0: r_0 + b_0 <= 1
 disjoint_1: r_1 + b_1 <= 1
 disjoint_2: r_2 + b_2 <= 1
 disjoint_3: r_3 + b_3 <= 1
 disjoint_4: r_4 + b_4 <= 1
 disjoint_5: r_5 + b_5 <= 1
 disjoint_6: r_6 + b_6 <= 1
 disjoint_7: r_7 + b_7 <= 1
 red_ind_0: r_0 + r_1 <= 1
 blue_ind_0: b_0 + b_1 <= 1
 red_ind_1: r_0 + r_2 <= 1
 blue_ind_1: b_0 + b_2 <= 1
 red_ind_2: r_0 + r_4 <= 1
 blue_ind_2: b_0 + b_4 <= 1
 red_ind_3: r_1 + r_3 <= 1
 blue_ind_3: b_1 + b_3 <= 1
 red_ind_4: r_1 + r_5 <= 1
 blue_ind_4: b_1 + b_5 <= 1
 red_ind_5: r_2 + r_3 <= 1
 blue_ind_5: b_2 + b_3 <= 1
 red_ind_6: r_2 + r_6 <= 1
 blue_ind_6: b_2 + b_6 <= 1
 red_ind_7: r_3 + r_7 <= 1
 blue_ind_7: b_3 + b_7 <= 1
 red_ind_8: r_4 + r_5 <= 1
 blue_ind_8: b_4 + b_5 <= 1
 red_ind_9: r_4 + r_6 <= 1
 blue_ind_9: b_4 + b_6 <= 1
 red_ind_10: r_5 + r_7 <= 1
 blue_ind_10: b_5 + b_7 <= 1
 red_ind_11: r_6 + r_7 <= 1
 blue_ind_11: b_6 + b_7 <= 1
 red_dom_0: r_1 + r_2 + r_4 + r_0 + b_0 >= 1
 blue_dom_0: b_1 + b_2 + b_4 + r_0 + b_0 >= 1
 red_dom_1: r_0 + r_3 + r_5 + r_1 + b_1 >= 1
 blue_dom_1: b_0 + b_3 + b_5 + r_1 + b_1 >= 1
 red_dom_2: r_0 + r_3 + r_6 + r_2 + b_2 >= 1
 blue_dom_2: b_0 + b_3 + b_6 + r_2 + b_2 >= 1
 red_dom_3: r_1 + r_2 + r_7 + r_3 + b_3 >= 1
 blue_dom_3: b_1 + b_2 + b_7 + r_3 + b_3 >= 1
 red_dom_4: r_0 + r_5 + r_6 + r_4 + b_4 >= 1
 blue_dom_4: b_0 + b_5 + b_6 + r_4 + b_4 >= 1
 red_dom_5: r_1 + r_4 + r_7 + r_5 + b_5 >= 1
 blue_dom_5: b_1 + b_4 + b_7 + r_5 + b_5 >= 1
 red_dom_6: r_2 + r_4 + r_7 + r_6 + b_6 >= 1
 blue_dom_6: b_2 + b_4 + b_7 + r_6 + b_6 >= 1
 red_dom_7: r_3 + r_5 + r_6 + r_7 + b_7 >= 1
 blue_dom_7: b_3 + b_5 + b_6 + r_7 + b_7 >= 1
Binary
 r_0
 r_1
 r_2
 r_3
 r_4
 r_5
 r_6
 r_7
 b_0
 b_1
 b_2
 b_3
 b_4
 b_5
 b_6
 b_7
End
