computational_data/solutions/Q3.sol
Optimal - objective value 4.00000000
      0 r_0                         1                       1
      1 r_1                         0                       1
      2 r_2                         0                       1
      3 r_3                         0                       1
      4 r_4                         0                       1
      5 r_5                         0                       1
      6 r_6                         0                       1
      7 r_7                         1                       1
      8 b_0                         0                       1
      9 b_1                         0                       1
     10 b_2                         0                       1
     11 b_3                         1                       1
     12 b_4                         1                       1
     13 b_5                         0                       1
     14 b_6                         0                       1
     15 b_7                         0                       1
